
-4.4
-4.2
-4.0
-3.8
-3.1
-1.6
-0.9
-0.7
-0.7
-0.7
-0.7
-0.7
-0.6
-0.5
-0.5
-0.5
-0.5
-0.5
-0.5
-0.5
-0.5
-0.5
-0.5
-0.5
-0.5
-0.5
-0.5
-4.5
-4.2
-3.9
-3.5
-2.85
-1.7
-1.1
-0.95
-0.85
-0.8
-0.8
-0.75
-0.7
-0.65
-0.65
-0.6
-0.6
-0.6
-0.6
-0.6
-0.6
-0.6
-0.6
-0.6
-0.6
-0.6
-0.6
-0.6
-0.6
-0.6
-0.6
-0.6
-0.6
-0.6
-4.55
-4.25
-4.0
-3.6
-2.85
-1.4
-0.95
-0.9
-0.9
-0.9
-0.9
-0.9
-0.9
-0.9
-0.9
-0.8
-0.75
-0.7
-0.6
-0.55
-0.55
-0.55
-0.55
-0.55
-0.55
-0.55